CUST NO.,XCOORD.,YCOORD.,updated_SERVICE_TIME,DEMAND,TW_START,TW_END
3,55,45.0,8,1.1,0.0,138.0
6,25,30.0,8,1.0,0.0,138.0
7,20,50.0,8,0.8,0.0,138.0
8,10,43.0,8,0.9,0.0,138.0
10,30,60.0,8,0.6,92.0,172.5
11,20,65.0,8,1.1,0.0,138.0
14,15,10.0,8,5.4,0.0,138.0
17,5,30.0,8,0.6,149.5,230.0
18,20,40.0,8,1.1,0.0,138.0
19,15,60.0,8,1.2999999999999998,0.0,138.0
21,45,20.0,8,1.1,0.0,138.0
23,55,5.0,8,29.0,0.0,138.0
25,65,20.0,8,6.0,149.5,230.0
26,35,35.0,0,0.0,0.0,0.0
capacity,200,,0,0.0,,
